id: 1761
name: neos1
group: mittelmann/misc
method: 2

Gurobi 7.0.2 (linux64, Matlab) logging started Mon Mar 26 10:30:37 2018


Gurobi 7.0.2 (linux64) logging started Mon Mar 26 10:30:37 2018

Optimize a model with 131581 rows, 1892 columns and 468009 nonzeros
Coefficient statistics:
  Matrix range     [1e+00, 1e+00]
  Objective range  [1e+00, 1e+00]
  Bounds range     [0e+00, 0e+00]
  RHS range        [1e+05, 1e+05]
Presolve time: 0.11s
Presolved: 1892 rows, 131581 columns, 468009 nonzeros

Ordering time: 0.04s

Barrier statistics:
 AA' NZ     : 2.815e+05
 Factor NZ  : 1.325e+06 (roughly 60 MBytes of memory)
 Factor Ops : 1.154e+09 (less than 1 second per iteration)
 Threads    : 4

                  Objective                Residual
Iter       Primal          Dual         Primal    Dual     Compl     Time
   0   1.19851535e+04  1.98515347e+03  3.44e+02 9.15e+04  2.06e+04     0s
   1   7.65787831e+05  4.51432863e+06  2.38e+02 9.29e+04  1.40e+04     0s
   2   6.67848689e+04  5.05795042e+06  2.99e+01 8.01e+04  1.93e+03     0s
   3   8.40887892e+03  4.90175673e+06  4.96e+00 2.90e+04  3.62e+02     0s
   4   2.22261485e+03  3.74701343e+06  1.34e+00 1.60e+04  1.18e+02     0s
   5   1.65450337e+03  2.84663921e+06  9.43e-01 9.55e+03  7.95e+01     0s
   6   1.13196722e+03  2.16657802e+06  5.81e-01 5.54e+03  4.84e+01     0s
   7   4.76711550e+02  1.28752266e+06  8.32e-02 1.71e+03  1.34e+01     1s
   8   4.09381766e+02  2.65654295e+05  2.51e-02 1.89e+02  2.28e+00     1s
   9   6.24609142e+02  7.47458945e+04  7.75e-04 4.78e+01  5.85e-01     1s
  10   7.95515394e+03  6.57632747e+04  8.63e-05 4.12e+01  4.56e-01     1s
  11   1.64673285e+04  6.09991284e+04  6.82e-05 3.03e+01  3.49e-01     1s
  12   2.48115729e+04  5.68563275e+04  4.76e-05 2.25e+01  2.51e-01     1s
  13   2.79887186e+04  5.54569787e+04  3.88e-05 1.97e+01  2.15e-01     1s
  14   3.14834181e+04  5.43836097e+04  3.04e-05 1.76e+01  1.80e-01     1s
  15   3.35418343e+04  5.28508146e+04  2.62e-05 1.42e+01  1.51e-01     1s
  16   3.68065705e+04  5.14185962e+04  1.91e-05 1.11e+01  1.14e-01     1s
  17   3.97634702e+04  5.01843831e+04  1.31e-05 8.28e+00  8.17e-02     1s
  18   4.26491317e+04  4.90042507e+04  7.15e-06 5.51e+00  5.00e-02     1s
  19   4.32639146e+04  4.87707940e+04  6.00e-06 5.02e+00  4.34e-02     1s
  20   4.35379265e+04  4.85264147e+04  5.45e-06 4.46e+00  3.93e-02     1s
  21   4.46200106e+04  4.76074223e+04  3.33e-06 2.40e+00  2.34e-02     1s
  22   4.48751729e+04  4.75974464e+04  2.87e-06 2.34e+00  2.14e-02     1s
  23   4.49868295e+04  4.73635659e+04  2.67e-06 1.88e+00  1.86e-02     1s
  24   4.53666115e+04  4.71082611e+04  2.01e-06 1.36e+00  1.36e-02     1s
  25   4.57786178e+04  4.70217400e+04  1.27e-06 1.16e+00  9.79e-03     1s
  26   4.58670205e+04  4.69622541e+04  1.13e-06 1.01e+00  8.62e-03     1s
  27   4.59387086e+04  4.68930734e+04  1.03e-06 8.10e-01  7.49e-03     1s
  28   4.60227388e+04  4.68871259e+04  9.04e-07 7.59e-01  6.79e-03     1s
  29   4.62734238e+04  4.68541526e+04  5.02e-07 6.70e-01  4.63e-03     1s
  30   4.65527977e+04  4.67678895e+04  1.60e-07 2.65e-01  1.72e-03     1s
  31   4.66485751e+04  4.67264780e+04  5.25e-08 9.63e-02  6.23e-04     1s
  32   4.66912293e+04  4.67064453e+04  1.06e-08 1.47e-02  1.20e-04     1s
  33   4.67025989e+04  4.67027202e+04  4.39e-11 4.12e-05  9.28e-07     1s
  34   4.67027027e+04  4.67027027e+04  7.01e-12 7.05e-11  1.25e-12     1s

Barrier solved model in 34 iterations and 1.43 seconds
Optimal objective 4.67027027e+04

Crossover log...

       0 DPushes remaining with DInf 3.6123993e-11                 1s

    7506 PPushes remaining with PInf 0.0000000e+00                 1s
       0 PPushes remaining with PInf 0.0000000e+00                 1s

  Push phase complete: Pinf 0.0000000e+00, Dinf 7.7477580e-11      1s

Iteration    Objective       Primal Inf.    Dual Inf.      Time
    7785    4.6702703e+04   0.000000e+00   0.000000e+00      1s
    7785    4.6702703e+04   0.000000e+00   0.000000e+00      2s

Solved in 7785 iterations and 1.54 seconds
Optimal objective  4.670270270e+04
status: OPTIMAL
